# Solution for model iteration_2340_copy
# Objective value = 2.5454362690487429e+01
0 0
1 0.001
3 0.001
4 1.001
5 0.001
6 1.001
7 0.001
8 1.001
9 1.0019999999999998e+00
11 1.0019999999999998e+00
13 1.0019999999999998e+00
15 1.5225747626965548e+01
17 1.6510519084857766e+01
18 1.7510519084857766e+01
19 1.9601183239273478e+01
21 3.7798401973536009e+01
22 3.8798401973536009e+01
23 3.8799401973536007e+01
25 3.0728410066060636e+01
27 3.5285284030430482e+01
28 3.6285284030430482e+01
29 4.0913850927377283e+01
30 4.1913850927377283e+01
31 4.3004203410051758e+01
33 4.2662066080645360e+01
34 4.3662066080645360e+01
35 4.3663066080645358e+01
37 4.8151865161842487e+01
38 4.9151865161842487e+01
39 5.0230223597754950e+01
41 5.7090587877492538e+01
42 5.8090587877492538e+01
43 6.2810815695246163e+01
44 6.3810815695246163e+01
45 6.1876022659207443e+01
46 6.2876022659207443e+01
47 6.3101725138533489e+01
48 6.4101725138533482e+01
49 6.4102725138533486e+01
51 5.8541288865497521e+01
53 6.3811815695246160e+01
54 6.4811815695246167e+01
55 6.4812815695246172e+01
57 6.9259566037333954e+01
58 7.0259566037333954e+01
59 7.0363635760567931e+01
61 8.5125619306493292e+01
62 8.6125619306493292e+01
63 8.6047249853944308e+01
64 8.7047249853944308e+01
65 86.1266193064933
67 8.7358992110451439e+01
68 8.8358992110451439e+01
69 8.8359992110451444e+01
71 9.4178153253560382e+01
73 1.0945336269048742e+02
74 1.1045336269048742e+02
75 1.0945336269048742e+02
76 1.1045336269048742e+02
77 1.1045436269048743e+02
c(0,77)_ru 2.5454362690487429e+01
lambda[0] 0
lambda[1] 0
lambda[2] 0
lambda[3] 0
lambda[4] 0
lambda[5] 0
lambda[6] 0
lambda[7] 0
lambda[8] 0
lambda[9] 0
lambda[10] 0
lambda[11] 0
lambda[12] 0
lambda[13] 0
lambda[14] 0
lambda[15] 0
lambda[16] 0
lambda[17] 0
lambda[18] 0
lambda[19] 0
lambda[20] 0
lambda[21] 0
lambda[22] 0
lambda[23] 0
lambda[24] 0
lambda[25] 0
lambda[26] 0
lambda[27] 0
lambda[28] 0
lambda[29] 0
lambda[30] 0
lambda[31] 0
lambda[32] 0
lambda[33] 0
lambda[34] 0
lambda[35] 0
lambda[36] 0
lambda[37] 0
lambda[38] 0
lambda[39] 0
lambda[40] 0
lambda[41] 0
lambda[42] 0
lambda[43] 0
lambda[44] 0
lambda[45] 0
lambda[46] 0
lambda[47] 0
lambda[48] 0
lambda[49] 0
lambda[50] 0
lambda[51] 0
lambda[52] 0
lambda[53] 0
lambda[54] 0
lambda[55] 0
lambda[56] 0
lambda[57] 0
lambda[58] 0
lambda[59] 0
lambda[60] 0
lambda[61] 0
lambda[62] 0
lambda[63] 0
lambda[64] 0
lambda[65] 0
lambda[66] 0
lambda[67] 0
lambda[68] 0
lambda[69] 0
lambda[70] 0
lambda[71] 0
lambda[72] 0
lambda[73] 0
lambda[74] 0
lambda[75] 0
lambda[76] 0
lambda[77] 0
lambda[78] 0
lambda[79] 0
lambda[80] 0
lambda[81] 0
lambda[82] 0
lambda[83] 0
lambda[84] 0
lambda[85] 0
lambda[86] 0
lambda[87] 0
lambda[88] 0
lambda[89] 0
lambda[90] 0
lambda[91] 0
lambda[92] 0
lambda[93] 0
lambda[94] 0
lambda[95] 0
lambda[96] 0
lambda[97] 0
lambda[98] 0
lambda[99] 0
lambda[100] 0
lambda[101] 0
lambda[102] 0
lambda[103] 0
lambda[104] 0
lambda[105] 0
lambda[106] 0
lambda[107] 0
lambda[108] 0
lambda[109] 0
lambda[110] 0
lambda[111] 0
lambda[112] 0
lambda[113] 0
lambda[114] 0
lambda[115] 0
lambda[116] 0
lambda[117] 0
lambda[118] 0
lambda[119] 0
lambda[120] 0
lambda[121] 0
lambda[122] 0
lambda[123] 0
lambda[124] 0
lambda[125] 0
lambda[126] 0
lambda[127] 0
lambda[128] 0
lambda[129] 0
lambda[130] 0
lambda[131] 0
lambda[132] 0
lambda[133] 0
lambda[134] 0
lambda[135] 0
lambda[136] 0
lambda[137] 0
lambda[138] 0
lambda[139] 0
lambda[140] 0
lambda[141] 0
lambda[142] 0
lambda[143] 0
lambda[144] 0
lambda[145] 0
lambda[146] 0
lambda[147] 0
lambda[148] 0
lambda[149] 0
lambda[150] 0
lambda[151] 0
lambda[152] 0
lambda[153] 0
lambda[154] 0
lambda[155] 0
lambda[156] 0
lambda[157] 0
lambda[158] 0
lambda[159] 0
lambda[160] 0
lambda[161] 0
lambda[162] 0
lambda[163] 0
lambda[164] 0
lambda[165] 0
lambda[166] 0
lambda[167] 0
lambda[168] 0
lambda[169] 0
lambda[170] 0
lambda[171] 0
lambda[172] 0
lambda[173] 0
lambda[174] 0
lambda[175] 0
lambda[176] 0
lambda[177] 0
lambda[178] 0
lambda[179] 0
lambda[180] 0
lambda[181] 0
lambda[182] 0
lambda[183] 0
lambda[184] 0
lambda[185] 0
lambda[186] 0
lambda[187] 0
lambda[188] 0
lambda[189] 0
lambda[190] 0
lambda[191] 0
lambda[192] 0
lambda[193] 0
lambda[194] 0
lambda[195] 0
lambda[196] 0
lambda[197] 0
lambda[198] 0
lambda[199] 0
lambda[200] 0
lambda[201] 0
lambda[202] 0
lambda[203] 0
lambda[204] 0
lambda[205] 0
lambda[206] 0
lambda[207] 0
lambda[208] 0
lambda[209] 0
lambda[210] 0
lambda[211] 0
lambda[212] 0
lambda[213] 0
lambda[214] 0
lambda[215] 0
lambda[216] 0
lambda[217] 0
lambda[218] 0
lambda[219] 0
lambda[220] 0
lambda[221] 0
lambda[222] 0
lambda[223] 0
lambda[224] 0
lambda[225] 0
lambda[226] 0
lambda[227] 0
lambda[228] 0
lambda[229] 0
lambda[230] 0
lambda[231] 0
lambda[232] 0
lambda[233] 0
lambda[234] 0
lambda[235] 0
lambda[236] 0
lambda[237] 0
lambda[238] 0
lambda[239] 0
lambda[240] 0
lambda[241] 0
lambda[242] 0
lambda[243] 0
lambda[244] 0
lambda[245] 0
lambda[246] 0
lambda[247] 0
lambda[248] 0
lambda[249] 0
lambda[250] 0
lambda[251] 0
lambda[252] 0
lambda[253] 0
lambda[254] 0
lambda[255] 0
lambda[256] 0
lambda[257] 0
lambda[258] 0
lambda[259] 0
lambda[260] 0
lambda[261] 0
lambda[262] 0
lambda[263] 0
lambda[264] 0
lambda[265] 0
lambda[266] 0
lambda[267] 0
lambda[268] 0
lambda[269] 0
lambda[270] 0
lambda[271] 0
lambda[272] 0
lambda[273] 0
lambda[274] 0
lambda[275] 0
lambda[276] 0
lambda[277] 0
lambda[278] 0
lambda[279] 0
lambda[280] 0
lambda[281] 0
lambda[282] 0
lambda[283] 0
lambda[284] 0
lambda[285] 0
lambda[286] 0
lambda[287] 0
lambda[288] 0
lambda[289] 0
lambda[290] 0
lambda[291] 0
lambda[292] 0
lambda[293] 0
lambda[294] 0
lambda[295] 0
lambda[296] 0
lambda[297] 0
lambda[298] 0
lambda[299] 0
lambda[300] 0
lambda[301] 0
lambda[302] 0
lambda[303] 0
lambda[304] 0
lambda[305] 0
lambda[306] 0
lambda[307] 0
lambda[308] 0
lambda[309] 0
lambda[310] 0
lambda[311] 0
lambda[312] 0
lambda[313] 0
lambda[314] 0
lambda[315] 0
lambda[316] 0
lambda[317] 0
lambda[318] 0
lambda[319] 0
lambda[320] 0
lambda[321] 0
lambda[322] 0
lambda[323] 0
lambda[324] 0
lambda[325] 0
lambda[326] 0
lambda[327] 0
lambda[328] 0
lambda[329] 0
lambda[330] 0
lambda[331] 0
lambda[332] 0
lambda[333] 0
lambda[334] 0
lambda[335] 0
lambda[336] 0
lambda[337] 0
lambda[338] 0
lambda[339] 0
lambda[340] 0
lambda[341] 0
lambda[342] 0
lambda[343] 0
lambda[344] 0
lambda[345] 0
lambda[346] 0
lambda[347] 0
lambda[348] 0
lambda[349] 0
lambda[350] 0
lambda[351] 0
lambda[352] 0
lambda[353] 0
lambda[354] 0
lambda[355] 0
lambda[356] 0
lambda[357] 0
lambda[358] 0
lambda[359] 0
lambda[360] 0
lambda[361] 0
lambda[362] 0
lambda[363] 0
lambda[364] 0
lambda[365] 0
lambda[366] 0
lambda[367] 0
lambda[368] 0
lambda[369] 0
lambda[370] 0
lambda[371] 0
lambda[372] 0
lambda[373] 0
lambda[374] 0
lambda[375] 0
lambda[376] 0
lambda[377] 0
lambda[378] 0
lambda[379] 0
lambda[380] 0
lambda[381] 0
lambda[382] 0
lambda[383] 0
lambda[384] 0
lambda[385] 0
lambda[386] 0
lambda[387] 0
lambda[388] 0
lambda[389] 0
lambda[390] 0
lambda[391] 0
lambda[392] 0
lambda[393] 0
lambda[394] 0
lambda[395] 0
lambda[396] 0
lambda[397] 0
lambda[398] 0
lambda[399] 0
lambda[400] 0
lambda[401] 0
lambda[402] 0
lambda[403] 0
lambda[404] 0
lambda[405] 0
lambda[406] 0
lambda[407] 0
lambda[408] 0
lambda[409] 0
lambda[410] 0
lambda[411] 0
lambda[412] 0
lambda[413] 0
lambda[414] 0
lambda[415] 0
lambda[416] 0
lambda[417] 0
lambda[418] 0
lambda[419] 0
lambda[420] 0
lambda[421] 0
lambda[422] 0
lambda[423] 0
lambda[424] 0
lambda[425] 0
lambda[426] 0
lambda[427] 0
lambda[428] 0
lambda[429] 0
lambda[430] 0
lambda[431] 0
lambda[432] 0
lambda[433] 0
lambda[434] 0
lambda[435] 0
lambda[436] 0
lambda[437] 0
lambda[438] 0
lambda[439] 0
lambda[440] 0
lambda[441] 0
lambda[442] 0
lambda[443] 0
lambda[444] 0
lambda[445] 0
lambda[446] 0
lambda[447] 0
lambda[448] 0
lambda[449] 0
lambda[450] 0
lambda[451] 0
lambda[452] 0
lambda[453] 0
lambda[454] 0
lambda[455] 0
lambda[456] 0
lambda[457] 0
lambda[458] 0
lambda[459] 0
lambda[460] 0
lambda[461] 0
lambda[462] 0
lambda[463] 0
lambda[464] 0
lambda[465] 0
lambda[466] 0
lambda[467] 0
lambda[468] 0
lambda[469] 0
lambda[470] 0
lambda[471] 0
lambda[472] 0
lambda[473] 0
lambda[474] 0
lambda[475] 0
lambda[476] 0
lambda[477] 0
lambda[478] 0
lambda[479] 0
lambda[480] 0
lambda[481] 0
lambda[482] 0
lambda[483] 0
lambda[484] 0
lambda[485] 0
lambda[486] 0
lambda[487] 0
lambda[488] 0
lambda[489] 0
lambda[490] 0
lambda[491] 0
lambda[492] 0
lambda[493] 0
lambda[494] 0
lambda[495] 0
lambda[496] 0
lambda[497] 0
lambda[498] 0
lambda[499] 0
lambda[500] 0
lambda[501] 0
lambda[502] 0
lambda[503] 0
lambda[504] 0
lambda[505] 0
lambda[506] 0
lambda[507] 0
lambda[508] 0
lambda[509] 0
lambda[510] 0
lambda[511] 0
lambda[512] 0
lambda[513] 0
lambda[514] 0
lambda[515] 0
lambda[516] 0
lambda[517] 0
lambda[518] 0
lambda[519] 0
lambda[520] 0
lambda[521] 0
lambda[522] 0
lambda[523] 0
lambda[524] 0
lambda[525] 0
lambda[526] 0
lambda[527] 0
lambda[528] 0
lambda[529] 0
lambda[530] 0
lambda[531] 0
lambda[532] 0
lambda[533] 0
lambda[534] 0
lambda[535] 0
lambda[536] 0
lambda[537] 0
lambda[538] 0
lambda[539] 0
lambda[540] 0
lambda[541] 0
lambda[542] 0
lambda[543] 0
lambda[544] 0
lambda[545] 0
lambda[546] 0
lambda[547] 0
lambda[548] 0
lambda[549] 0
lambda[550] 0
lambda[551] 0
lambda[552] 0
lambda[553] 0
lambda[554] 0
lambda[555] 0
lambda[556] 0
lambda[557] 0
lambda[558] 0
lambda[559] 0
lambda[560] 0
lambda[561] 0
lambda[562] 0
lambda[563] 0
lambda[564] 0
lambda[565] 0
lambda[566] 0
lambda[567] 0
lambda[568] 0
lambda[569] 0
lambda[570] 0
lambda[571] 0
lambda[572] 0
lambda[573] 0
lambda[574] 0
lambda[575] 0
lambda[576] 0
lambda[577] 0
lambda[578] 0
lambda[579] 0
lambda[580] 0
lambda[581] 0
lambda[582] 0
lambda[583] 0
lambda[584] 0
lambda[585] 0
lambda[586] 0
lambda[587] 0
lambda[588] 0
lambda[589] 0
lambda[590] 0
lambda[591] 0
lambda[592] 0
lambda[593] 0
lambda[594] 0
lambda[595] 0
lambda[596] 0
lambda[597] 0
lambda[598] 0
lambda[599] 0
lambda[600] 0
lambda[601] 0
lambda[602] 0
lambda[603] 0
lambda[604] 0
lambda[605] 0
lambda[606] 0
lambda[607] 0
lambda[608] 0
lambda[609] 0
lambda[610] 0
lambda[611] 0
lambda[612] 0
lambda[613] 0
lambda[614] 0
lambda[615] 0
lambda[616] 0
lambda[617] 0
lambda[618] 0
lambda[619] 0
lambda[620] 0
lambda[621] 0
lambda[622] 0
lambda[623] 0
lambda[624] 0
lambda[625] 0
lambda[626] 0
lambda[627] 0
lambda[628] 0
lambda[629] 0
lambda[630] 0
lambda[631] 0
lambda[632] 0
lambda[633] 0
lambda[634] 0
lambda[635] 0
lambda[636] 0
lambda[637] 0
lambda[638] 0
lambda[639] 0
lambda[640] 0
lambda[641] 0
lambda[642] 0
lambda[643] 0
lambda[644] 0
lambda[645] 0
lambda[646] 0
lambda[647] 0
lambda[648] 0
lambda[649] 0
lambda[650] 0
lambda[651] 0
lambda[652] 0
lambda[653] 0
lambda[654] 0
lambda[655] 0
lambda[656] 0
lambda[657] 0
lambda[658] 0
lambda[659] 0
lambda[660] 0
lambda[661] 0
lambda[662] 0
lambda[663] 0
lambda[664] 0
lambda[665] 0
lambda[666] 0
lambda[667] 0
lambda[668] 0
lambda[669] 0
lambda[670] 0
lambda[671] 0
lambda[672] 0
lambda[673] 0
lambda[674] 0
lambda[675] 0
lambda[676] 0
lambda[677] 0
lambda[678] 0
lambda[679] 0
lambda[680] 0
lambda[681] 0
lambda[682] 0
lambda[683] 0
lambda[684] 0
lambda[685] 0
lambda[686] 0
lambda[687] 0
lambda[688] 0
lambda[689] 0
lambda[690] 0
lambda[691] 0
lambda[692] 0
lambda[693] 0
lambda[694] 0
lambda[695] 0
lambda[696] 0
lambda[697] 0
lambda[698] 0
lambda[699] 0
lambda[700] 0
lambda[701] 0
lambda[702] 0
lambda[703] 0
lambda[704] 0
lambda[705] 0
lambda[706] 0
lambda[707] 0
lambda[708] 0
lambda[709] 0
lambda[710] 0
lambda[711] 0
lambda[712] 0
lambda[713] 0
lambda[714] 0
lambda[715] 0
lambda[716] 0
lambda[717] 0
lambda[718] 0
lambda[719] 0
lambda[720] 0
lambda[721] 0
lambda[722] 0
lambda[723] 0
lambda[724] 0
lambda[725] 0
lambda[726] 0
lambda[727] 0
lambda[728] 0
lambda[729] 0
lambda[730] 0
lambda[731] 0
lambda[732] 0
lambda[733] 0
lambda[734] 0
lambda[735] 0
lambda[736] 0
lambda[737] 0
lambda[738] 0
lambda[739] 0
lambda[740] 0
lambda[741] 0
lambda[742] 0
lambda[743] 0
lambda[744] 0
lambda[745] 0
lambda[746] 0
lambda[747] 0
lambda[748] 0
lambda[749] 0
lambda[750] 0
lambda[751] 0
lambda[752] 0
lambda[753] 0
lambda[754] 0
lambda[755] 0
lambda[756] 0
lambda[757] 0
lambda[758] 0
lambda[759] 0
lambda[760] 0
lambda[761] 0
lambda[762] 0
lambda[763] 0
lambda[764] 0
lambda[765] 0
lambda[766] 0
lambda[767] 0
lambda[768] 0
lambda[769] 0
lambda[770] 0
lambda[771] 0
lambda[772] 0
lambda[773] 0
lambda[774] 0
lambda[775] 0
lambda[776] 0
lambda[777] 0
lambda[778] 0
lambda[779] 0
lambda[780] 0
lambda[781] 0
lambda[782] 0
lambda[783] 0
lambda[784] 0
lambda[785] 0
lambda[786] 0
lambda[787] 0
lambda[788] 0
lambda[789] 0
lambda[790] 0
lambda[791] 0
lambda[792] 0
lambda[793] 0
lambda[794] 0
lambda[795] 0
lambda[796] 0
lambda[797] 0
lambda[798] 0
lambda[799] 0
lambda[800] 0
lambda[801] 0
lambda[802] 0
lambda[803] 0
lambda[804] 0
lambda[805] 0
lambda[806] 0
lambda[807] 0
lambda[808] 0
lambda[809] 0
lambda[810] 0
lambda[811] 0
lambda[812] 0
lambda[813] 0
lambda[814] 0
lambda[815] 0
lambda[816] 0
lambda[817] 0
lambda[818] 0
lambda[819] 0
lambda[820] 0
lambda[821] 0
lambda[822] 0
lambda[823] 0
lambda[824] 0
lambda[825] 0
lambda[826] 0
lambda[827] 0
lambda[828] 0
lambda[829] 0
lambda[830] 0
lambda[831] 0
lambda[832] 0
lambda[833] 0
lambda[834] 0
lambda[835] 0
lambda[836] 0
lambda[837] 0
lambda[838] 0
lambda[839] 0
lambda[840] 0
lambda[841] 0
lambda[842] 0
lambda[843] 0
lambda[844] 0
lambda[845] 0
lambda[846] 0
lambda[847] 0
lambda[848] 0
lambda[849] 0
lambda[850] 0
lambda[851] 0
lambda[852] 0
lambda[853] 0
lambda[854] 0
lambda[855] 0
lambda[856] 0
lambda[857] 0
lambda[858] 0
lambda[859] 0
lambda[860] 0
lambda[861] 0
lambda[862] 0
lambda[863] 0
lambda[864] 0
lambda[865] 0
lambda[866] 0
lambda[867] 0
lambda[868] 0
lambda[869] 0
lambda[870] 0
lambda[871] 0
lambda[872] 0
lambda[873] 0
lambda[874] 0
lambda[875] 0
lambda[876] 0
lambda[877] 0
lambda[878] 0
lambda[879] 0
lambda[880] 0
lambda[881] 0
lambda[882] 0
lambda[883] 0
lambda[884] 0
lambda[885] 0
lambda[886] 0
lambda[887] 0
lambda[888] 0
lambda[889] 0
lambda[890] 0
lambda[891] 0
lambda[892] 0
lambda[893] 0
lambda[894] 0
lambda[895] 0
lambda[896] 0
lambda[897] 0
lambda[898] 0
lambda[899] 0
lambda[900] 0
lambda[901] 0
lambda[902] 0
lambda[903] 0
lambda[904] 0
lambda[905] 0
lambda[906] 0
lambda[907] 0
lambda[908] 0
lambda[909] 0
lambda[910] 0
lambda[911] 0
lambda[912] 0
lambda[913] 0
lambda[914] 0
lambda[915] 0
lambda[916] 0
lambda[917] 0
lambda[918] 0
lambda[919] 0
lambda[920] 0
lambda[921] 0
lambda[922] 0
lambda[923] 0
lambda[924] 0
lambda[925] 0
lambda[926] 0
lambda[927] 0
lambda[928] 0
lambda[929] 0
lambda[930] 0
lambda[931] 0
lambda[932] 0
lambda[933] 0
lambda[934] 0
lambda[935] 0
lambda[936] 0
lambda[937] 0
lambda[938] 0
lambda[939] 0
lambda[940] 0
lambda[941] 0
lambda[942] 0
lambda[943] 0
lambda[944] 0
lambda[945] 0
lambda[946] 0
lambda[947] 0
lambda[948] 0
lambda[949] 0
lambda[950] 0
lambda[951] 0
lambda[952] 0
lambda[953] 0
lambda[954] 0
lambda[955] 0
lambda[956] 0
lambda[957] 0
lambda[958] 0
lambda[959] 0
lambda[960] 0
lambda[961] 0
lambda[962] 0
lambda[963] 0
lambda[964] 0
lambda[965] 0
lambda[966] 0
lambda[967] 0
lambda[968] 0
lambda[969] 0
lambda[970] 0
lambda[971] 0
lambda[972] 0
lambda[973] 0
lambda[974] 0
lambda[975] 0
lambda[976] 0
lambda[977] 0
lambda[978] 0
lambda[979] 0
lambda[980] 0
lambda[981] 0
lambda[982] 0
lambda[983] 0
lambda[984] 0
lambda[985] 0
lambda[986] 0
lambda[987] 0
lambda[988] 0
lambda[989] 0
lambda[990] 0
lambda[991] 0
lambda[992] 0
lambda[993] 0
lambda[994] 0
lambda[995] 0
lambda[996] 0
lambda[997] 0
lambda[998] 0
lambda[999] 0
lambda[1000] 0
lambda[1001] 0
lambda[1002] 0
lambda[1003] 0
lambda[1004] 0
lambda[1005] 0
lambda[1006] 0
lambda[1007] 0
lambda[1008] 0
lambda[1009] 0
lambda[1010] 0
lambda[1011] 0
lambda[1012] 0
lambda[1013] 0
lambda[1014] 0
lambda[1015] 0
lambda[1016] 0
lambda[1017] 0
lambda[1018] 0
lambda[1019] 0
lambda[1020] 0
lambda[1021] 0
lambda[1022] 0
lambda[1023] 0
lambda[1024] 0
lambda[1025] 0
lambda[1026] 0
lambda[1027] 0
lambda[1028] 0
lambda[1029] 0
lambda[1030] 0
lambda[1031] 0
lambda[1032] 0
lambda[1033] 0
lambda[1034] 0
lambda[1035] 0
lambda[1036] 0
lambda[1037] 0
lambda[1038] 0
lambda[1039] 0
lambda[1040] 0
lambda[1041] 0
lambda[1042] 0
lambda[1043] 0
lambda[1044] 0
lambda[1045] 0
lambda[1046] 0
lambda[1047] 0
lambda[1048] 0
lambda[1049] 0
lambda[1050] 0
lambda[1051] 0
lambda[1052] 0
lambda[1053] 0
lambda[1054] 0
lambda[1055] 0
lambda[1056] 0
lambda[1057] 0
lambda[1058] 0
lambda[1059] 0
lambda[1060] 0
lambda[1061] 0
lambda[1062] 0
lambda[1063] 0
lambda[1064] 0
lambda[1065] 0
lambda[1066] 0
lambda[1067] 0
lambda[1068] 0
lambda[1069] 0
lambda[1070] 0
lambda[1071] 0
lambda[1072] 0
lambda[1073] 0
lambda[1074] 0
lambda[1075] 0
lambda[1076] 0
lambda[1077] 0
lambda[1078] 0
lambda[1079] 0
lambda[1080] 0
lambda[1081] 0
lambda[1082] 0
lambda[1083] 0
lambda[1084] 0
lambda[1085] 0
lambda[1086] 0
lambda[1087] 0
lambda[1088] 0
lambda[1089] 0
lambda[1090] 0
lambda[1091] 0
lambda[1092] 0
lambda[1093] 0
lambda[1094] 0
lambda[1095] 0
lambda[1096] 0
lambda[1097] 0
lambda[1098] 0
lambda[1099] 0
lambda[1100] 0
lambda[1101] 0
lambda[1102] 0
lambda[1103] 0
lambda[1104] 0
lambda[1105] 0
lambda[1106] 0
lambda[1107] 0
lambda[1108] 0
lambda[1109] 0
lambda[1110] 0
lambda[1111] 0
lambda[1112] 0
lambda[1113] 0
lambda[1114] 0
lambda[1115] 0
lambda[1116] 0
lambda[1117] 0
lambda[1118] 0
lambda[1119] 0
lambda[1120] 0
lambda[1121] 0
lambda[1122] 0
lambda[1123] 0
lambda[1124] 0
lambda[1125] 0
lambda[1126] 0
lambda[1127] 0
lambda[1128] 0
lambda[1129] 0
lambda[1130] 0
lambda[1131] 0
lambda[1132] 0
lambda[1133] 0
lambda[1134] 0
lambda[1135] 0
lambda[1136] 0
lambda[1137] 0
lambda[1138] 0
lambda[1139] 0
lambda[1140] 0
lambda[1141] 0
lambda[1142] 0
lambda[1143] 0
lambda[1144] 0
lambda[1145] 0
lambda[1146] 0
lambda[1147] 0
lambda[1148] 0
lambda[1149] 0
lambda[1150] 0
lambda[1151] 0
lambda[1152] 0
lambda[1153] 0
lambda[1154] 0
lambda[1155] 0
lambda[1156] 0
lambda[1157] 0
lambda[1158] 0
lambda[1159] 0
lambda[1160] 0
lambda[1161] 0
lambda[1162] 0
lambda[1163] 0
lambda[1164] 0
lambda[1165] 0
lambda[1166] 0
lambda[1167] 0
lambda[1168] 0
lambda[1169] 0
lambda[1170] 0
lambda[1171] 0
lambda[1172] 0
lambda[1173] 0
lambda[1174] 0
lambda[1175] 0
lambda[1176] 0
lambda[1177] 0
lambda[1178] 0
lambda[1179] 0
lambda[1180] 0
lambda[1181] 0
lambda[1182] 0
lambda[1183] 0
lambda[1184] 0
lambda[1185] 0
lambda[1186] 0
lambda[1187] 0
lambda[1188] 0
lambda[1189] 0
lambda[1190] 0
lambda[1191] 0
lambda[1192] 0
lambda[1193] 0
lambda[1194] 0
lambda[1195] 0
lambda[1196] 0
lambda[1197] 0
lambda[1198] 0
lambda[1199] 0
lambda[1200] 0
lambda[1201] 0
lambda[1202] 0
lambda[1203] 0
lambda[1204] 0
lambda[1205] 0
lambda[1206] 0
lambda[1207] 0
lambda[1208] 0
lambda[1209] 0
lambda[1210] 0
lambda[1211] 0
lambda[1212] 0
lambda[1213] 0
lambda[1214] 0
lambda[1215] 0
lambda[1216] 0
lambda[1217] 0
lambda[1218] 0
lambda[1219] 0
lambda[1220] 0
lambda[1221] 0
lambda[1222] 0
lambda[1223] 0
lambda[1224] 0
lambda[1225] 0
lambda[1226] 0
lambda[1227] 0
lambda[1228] 0
lambda[1229] 0
lambda[1230] 0
lambda[1231] 0
lambda[1232] 0
lambda[1233] 0
lambda[1234] 0
lambda[1235] 0
lambda[1236] 0
lambda[1237] 0
lambda[1238] 0
lambda[1239] 0
lambda[1240] 0
lambda[1241] 0
lambda[1242] 0
lambda[1243] 0
lambda[1244] 0
lambda[1245] 0
lambda[1246] 0
lambda[1247] 0
lambda[1248] 0
lambda[1249] 0
lambda[1250] 0
lambda[1251] 0
lambda[1252] 0
lambda[1253] 0
lambda[1254] 0
lambda[1255] 0
lambda[1256] 0
lambda[1257] 0
lambda[1258] 0
lambda[1259] 0
lambda[1260] 0
lambda[1261] 0
lambda[1262] 0
lambda[1263] 0
lambda[1264] 0
lambda[1265] 0
lambda[1266] 0
lambda[1267] 0
lambda[1268] 0
lambda[1269] 0
lambda[1270] 0
lambda[1271] 0
lambda[1272] 0
lambda[1273] 0
lambda[1274] 0
lambda[1275] 0
lambda[1276] 0
lambda[1277] 0
lambda[1278] 0
lambda[1279] 0
lambda[1280] 0
lambda[1281] 0
lambda[1282] 0
lambda[1283] 0
lambda[1284] 0
lambda[1285] 0
lambda[1286] 0
lambda[1287] 0
lambda[1288] 0
lambda[1289] 0
lambda[1290] 0
lambda[1291] 0
lambda[1292] 0
lambda[1293] 0
lambda[1294] 0
lambda[1295] 0
lambda[1296] 0
lambda[1297] 0
lambda[1298] 0
lambda[1299] 0
lambda[1300] 0
lambda[1301] 0
lambda[1302] 0
lambda[1303] 0
lambda[1304] 4.7495705393856569e-01
lambda[1305] 0
lambda[1306] 0
lambda[1307] 8.0428129095659551e-02
lambda[1308] 0
lambda[1309] 0
lambda[1310] 0
lambda[1311] 0
lambda[1312] 0
lambda[1313] 0
lambda[1314] 0
lambda[1315] 0
lambda[1316] 0
lambda[1317] 0
lambda[1318] 0
lambda[1319] 0
lambda[1320] 0
lambda[1321] 0
lambda[1322] 0
lambda[1323] 0
lambda[1324] 0
lambda[1325] 0
lambda[1326] 0
lambda[1327] 0
lambda[1328] 0
lambda[1329] 0
lambda[1330] 0
lambda[1331] 0
lambda[1332] 0
lambda[1333] 0
lambda[1334] 0
lambda[1335] 0
lambda[1336] 0
lambda[1337] 0
lambda[1338] 0
lambda[1339] 0
lambda[1340] 0
lambda[1341] 0
lambda[1342] 0
lambda[1343] 0
lambda[1344] 0
lambda[1345] 0
lambda[1346] 0
lambda[1347] 0
lambda[1348] 0
lambda[1349] 0
lambda[1350] 0
lambda[1351] 0
lambda[1352] 0
lambda[1353] 0
lambda[1354] 0
lambda[1355] 0
lambda[1356] 0
lambda[1357] 0
lambda[1358] 0
lambda[1359] 0
lambda[1360] 0
lambda[1361] 0
lambda[1362] 0
lambda[1363] 0
lambda[1364] 0
lambda[1365] 0
lambda[1366] 0
lambda[1367] 0
lambda[1368] 0
lambda[1369] 0
lambda[1370] 0
lambda[1371] 0
lambda[1372] 0
lambda[1373] 0
lambda[1374] 0
lambda[1375] 0
lambda[1376] 0
lambda[1377] 0
lambda[1378] 0
lambda[1379] 0
lambda[1380] 0
lambda[1381] 0
lambda[1382] 0
lambda[1383] 0
lambda[1384] 0
lambda[1385] 0
lambda[1386] 0
lambda[1387] 0
lambda[1388] 0
lambda[1389] 0
lambda[1390] 0
lambda[1391] 0
lambda[1392] 0
lambda[1393] 0
lambda[1394] 0
lambda[1395] 0
lambda[1396] 0
lambda[1397] 0
lambda[1398] 0
lambda[1399] 0
lambda[1400] 0
lambda[1401] 0
lambda[1402] 0
lambda[1403] 0
lambda[1404] 0
lambda[1405] 0
lambda[1406] 0
lambda[1407] 0
lambda[1408] 0
lambda[1409] 0
lambda[1410] 0
lambda[1411] 0
lambda[1412] 0
lambda[1413] 0
lambda[1414] 0
lambda[1415] 0
lambda[1416] 0
lambda[1417] 0
lambda[1418] 0
lambda[1419] 0
lambda[1420] 0
lambda[1421] 0
lambda[1422] 0
lambda[1423] 0
lambda[1424] 0
lambda[1425] 0
lambda[1426] 0
lambda[1427] 0
lambda[1428] 0
lambda[1429] 0
lambda[1430] 0
lambda[1431] 0
lambda[1432] 0
lambda[1433] 0
lambda[1434] 0
lambda[1435] 0
lambda[1436] 0
lambda[1437] 0
lambda[1438] 0
lambda[1439] 0
lambda[1440] 0
lambda[1441] 0
lambda[1442] 0
lambda[1443] 0
lambda[1444] 0
lambda[1445] 0
lambda[1446] 0
lambda[1447] 0
lambda[1448] 0
lambda[1449] 0
lambda[1450] 0
lambda[1451] 0
lambda[1452] 0
lambda[1453] 0
lambda[1454] 0
lambda[1455] 0
lambda[1456] 0
lambda[1457] 0
lambda[1458] 0
lambda[1459] 0
lambda[1460] 0
lambda[1461] 0
lambda[1462] 0
lambda[1463] 0
lambda[1464] 0
lambda[1465] 0
lambda[1466] 0
lambda[1467] 0
lambda[1468] 0
lambda[1469] 0
lambda[1470] 0
lambda[1471] 0
lambda[1472] 0
lambda[1473] 0
lambda[1474] 0
lambda[1475] 0
lambda[1476] 0
lambda[1477] 0
lambda[1478] 0
lambda[1479] 0
lambda[1480] 0
lambda[1481] 0
lambda[1482] 0
lambda[1483] 0
lambda[1484] 0
lambda[1485] 0
lambda[1486] 0
lambda[1487] 0
lambda[1488] 0
lambda[1489] 0
lambda[1490] 0
lambda[1491] 0
lambda[1492] 0
lambda[1493] 0
lambda[1494] 0
lambda[1495] 0
lambda[1496] 0
lambda[1497] 0
lambda[1498] 0
lambda[1499] 0
lambda[1500] 0
lambda[1501] 0
lambda[1502] 0
lambda[1503] 0
lambda[1504] 0
lambda[1505] 0
lambda[1506] 0
lambda[1507] 0
lambda[1508] 0
lambda[1509] 0
lambda[1510] 0
lambda[1511] 0
lambda[1512] 0
lambda[1513] 0
lambda[1514] 0
lambda[1515] 0
lambda[1516] 0
lambda[1517] 0
lambda[1518] 0
lambda[1519] 0
lambda[1520] 0
lambda[1521] 0
lambda[1522] 0
lambda[1523] 0
lambda[1524] 0
lambda[1525] 0
lambda[1526] 0
lambda[1527] 0
lambda[1528] 0
lambda[1529] 0
lambda[1530] 0
lambda[1531] 0
lambda[1532] 0
lambda[1533] 0
lambda[1534] 0
lambda[1535] 0
lambda[1536] 0
lambda[1537] 0
lambda[1538] 0
lambda[1539] 0
lambda[1540] 0
lambda[1541] 0
lambda[1542] 0
lambda[1543] 0
lambda[1544] 0
lambda[1545] 0
lambda[1546] 0
lambda[1547] 0
lambda[1548] 0
lambda[1549] 0
lambda[1550] 0
lambda[1551] 0
lambda[1552] 0
lambda[1553] 0
lambda[1554] 0
lambda[1555] 0
lambda[1556] 0
lambda[1557] 0
lambda[1558] 0
lambda[1559] 0
lambda[1560] 0
lambda[1561] 0
lambda[1562] 0
lambda[1563] 0
lambda[1564] 0
lambda[1565] 0
lambda[1566] 0
lambda[1567] 0
lambda[1568] 0
lambda[1569] 0
lambda[1570] 0
lambda[1571] 0
lambda[1572] 0
lambda[1573] 0
lambda[1574] 0
lambda[1575] 0
lambda[1576] 0
lambda[1577] 0
lambda[1578] 0
lambda[1579] 0
lambda[1580] 0
lambda[1581] 0
lambda[1582] 0
lambda[1583] 0
lambda[1584] 0
lambda[1585] 0
lambda[1586] 0
lambda[1587] 0
lambda[1588] 0
lambda[1589] 0
lambda[1590] 0
lambda[1591] 0
lambda[1592] 0
lambda[1593] 0
lambda[1594] 0
lambda[1595] 0
lambda[1596] 0
lambda[1597] 0
lambda[1598] 0
lambda[1599] 0
lambda[1600] 0
lambda[1601] 0
lambda[1602] 0
lambda[1603] 0
lambda[1604] 0
lambda[1605] 0
lambda[1606] 0
lambda[1607] 0
lambda[1608] 0
lambda[1609] 0
lambda[1610] 0
lambda[1611] 0
lambda[1612] 0
lambda[1613] 0
lambda[1614] 0
lambda[1615] 0
lambda[1616] 0
lambda[1617] 0
lambda[1618] 0
lambda[1619] 0
lambda[1620] 0
lambda[1621] 0
lambda[1622] 0
lambda[1623] 0
lambda[1624] 0
lambda[1625] 0
lambda[1626] 0
lambda[1627] 0
lambda[1628] 0
lambda[1629] 0
lambda[1630] 0
lambda[1631] 0
lambda[1632] 0
lambda[1633] 0
lambda[1634] 0
lambda[1635] 0
lambda[1636] 0
lambda[1637] 0
lambda[1638] 0
lambda[1639] 0
lambda[1640] 0
lambda[1641] 0
lambda[1642] 0
lambda[1643] 0
lambda[1644] 0
lambda[1645] 0
lambda[1646] 0
lambda[1647] 0
lambda[1648] 0
lambda[1649] 0
lambda[1650] 0
lambda[1651] 0
lambda[1652] 0
lambda[1653] 0
lambda[1654] 0
lambda[1655] 0
lambda[1656] 0
lambda[1657] 0
lambda[1658] 0
lambda[1659] 0
lambda[1660] 0
lambda[1661] 0
lambda[1662] 0
lambda[1663] 0
lambda[1664] 0
lambda[1665] 0
lambda[1666] 0
lambda[1667] 3.0082492734497113e-01
lambda[1668] 0
lambda[1669] 0
lambda[1670] 0
lambda[1671] 0
lambda[1672] 0
lambda[1673] 0
lambda[1674] 0
lambda[1675] 0
lambda[1676] 0
lambda[1677] 0
lambda[1678] 0
lambda[1679] 0
lambda[1680] 0
lambda[1681] 0
lambda[1682] 0
lambda[1683] 0
lambda[1684] 0
lambda[1685] 0
lambda[1686] 0
lambda[1687] 0
lambda[1688] 0
lambda[1689] 0
lambda[1690] 0
lambda[1691] 0
lambda[1692] 0
lambda[1693] 0
lambda[1694] 0
lambda[1695] 0
lambda[1696] 0
lambda[1697] 0
lambda[1698] 0
lambda[1699] 0
lambda[1700] 0
lambda[1701] 0
lambda[1702] 0
lambda[1703] 0
lambda[1704] 0
lambda[1705] 0
lambda[1706] 0
lambda[1707] 0
lambda[1708] 0
lambda[1709] 0
lambda[1710] 0
lambda[1711] 0
lambda[1712] 0
lambda[1713] 0
lambda[1714] 0
lambda[1715] 0
lambda[1716] 0
lambda[1717] 0
lambda[1718] 0
lambda[1719] 0
lambda[1720] 0
lambda[1721] 0
lambda[1722] 0
lambda[1723] 0
lambda[1724] 0
lambda[1725] 0
lambda[1726] 0
lambda[1727] 0
lambda[1728] 0
lambda[1729] 0
lambda[1730] 0
lambda[1731] 0
lambda[1732] 0
lambda[1733] 0
lambda[1734] 0
lambda[1735] 0
lambda[1736] 0
lambda[1737] 0
lambda[1738] 0
lambda[1739] 0
lambda[1740] 0
lambda[1741] 0
lambda[1742] 0
lambda[1743] 0
lambda[1744] 0
lambda[1745] 0
lambda[1746] 0
lambda[1747] 0
lambda[1748] 0
lambda[1749] 0
lambda[1750] 0
lambda[1751] 0
lambda[1752] 0
lambda[1753] 0
lambda[1754] 0
lambda[1755] 0
lambda[1756] 0
lambda[1757] 0
lambda[1758] 0
lambda[1759] 0
lambda[1760] 0
lambda[1761] 0
lambda[1762] 0
lambda[1763] 0
lambda[1764] 0
lambda[1765] 0
lambda[1766] 0
lambda[1767] 0
lambda[1768] 0
lambda[1769] 0
lambda[1770] 0
lambda[1771] 0
lambda[1772] 0
lambda[1773] 0
lambda[1774] 0
lambda[1775] 0
lambda[1776] 0
lambda[1777] 0
lambda[1778] 0
lambda[1779] 0
lambda[1780] 0
lambda[1781] 0
lambda[1782] 0
lambda[1783] 0
lambda[1784] 0
lambda[1785] 0
lambda[1786] 0
lambda[1787] 0
lambda[1788] 0
lambda[1789] 0
lambda[1790] 0
lambda[1791] 0
lambda[1792] 0
lambda[1793] 0
lambda[1794] 0
lambda[1795] 0
lambda[1796] 0
lambda[1797] 0
lambda[1798] 0
lambda[1799] 0
lambda[1800] 0
lambda[1801] 0
lambda[1802] 0
lambda[1803] 0
lambda[1804] 0
lambda[1805] 0
lambda[1806] 0
lambda[1807] 0
lambda[1808] 0
lambda[1809] 0
lambda[1810] 0
lambda[1811] 0
lambda[1812] 0
lambda[1813] 0
lambda[1814] 0
lambda[1815] 0
lambda[1816] 0
lambda[1817] 0
lambda[1818] 0
lambda[1819] 0
lambda[1820] 0
lambda[1821] 0
lambda[1822] 0
lambda[1823] 0
lambda[1824] 0
lambda[1825] 0
lambda[1826] 0
lambda[1827] 0
lambda[1828] 0
lambda[1829] 0
lambda[1830] 0
lambda[1831] 0
lambda[1832] 0
lambda[1833] 0
lambda[1834] 0
lambda[1835] 0
lambda[1836] 0
lambda[1837] 0
lambda[1838] 0
lambda[1839] 0
lambda[1840] 0
lambda[1841] 0
lambda[1842] 0
lambda[1843] 0
lambda[1844] 0
lambda[1845] 0
lambda[1846] 0
lambda[1847] 0
lambda[1848] 0
lambda[1849] 0
lambda[1850] 0
lambda[1851] 0
lambda[1852] 0
lambda[1853] 0
lambda[1854] 0
lambda[1855] 0
lambda[1856] 0
lambda[1857] 0
lambda[1858] 0
lambda[1859] 0
lambda[1860] 0
lambda[1861] 0
lambda[1862] 0
lambda[1863] 0
lambda[1864] 0
lambda[1865] 0
lambda[1866] 0
lambda[1867] 0
lambda[1868] 0
lambda[1869] 0
lambda[1870] 0
lambda[1871] 0
lambda[1872] 0
lambda[1873] 0
lambda[1874] 0
lambda[1875] 0
lambda[1876] 0
lambda[1877] 0
lambda[1878] 0
lambda[1879] 0
lambda[1880] 0
lambda[1881] 0
lambda[1882] 0
lambda[1883] 0
lambda[1884] 0
lambda[1885] 0
lambda[1886] 0
lambda[1887] 0
lambda[1888] 0
lambda[1889] 0
lambda[1890] 0
lambda[1891] 0
lambda[1892] 0
lambda[1893] 0
lambda[1894] 0
lambda[1895] 0
lambda[1896] 0
lambda[1897] 0
lambda[1898] 0
lambda[1899] 0
lambda[1900] 0
lambda[1901] 0
lambda[1902] 0
lambda[1903] 0
lambda[1904] 0
lambda[1905] 0
lambda[1906] 0
lambda[1907] 0
lambda[1908] 0
lambda[1909] 0
lambda[1910] 0
lambda[1911] 0
lambda[1912] 0
lambda[1913] 0
lambda[1914] 0
lambda[1915] 0
lambda[1916] 0
lambda[1917] 0
lambda[1918] 0
lambda[1919] 0
lambda[1920] 0
lambda[1921] 0
lambda[1922] 0
lambda[1923] 0
lambda[1924] 0
lambda[1925] 0
lambda[1926] 0
lambda[1927] 0
lambda[1928] 0
lambda[1929] 0
lambda[1930] 0
lambda[1931] 0
lambda[1932] 0
lambda[1933] 0
lambda[1934] 0
lambda[1935] 0
lambda[1936] 0
lambda[1937] 0
lambda[1938] 0
lambda[1939] 0
lambda[1940] 0
lambda[1941] 0
lambda[1942] 0
lambda[1943] 0
lambda[1944] 0
lambda[1945] 0
lambda[1946] 0
lambda[1947] 0
lambda[1948] 0
lambda[1949] 0
lambda[1950] 0
lambda[1951] 0
lambda[1952] 0
lambda[1953] 0
lambda[1954] 0
lambda[1955] 0
lambda[1956] 0
lambda[1957] 0
lambda[1958] 0
lambda[1959] 0
lambda[1960] 0
lambda[1961] 0
lambda[1962] 0
lambda[1963] 0
lambda[1964] 0
lambda[1965] 0
lambda[1966] 0
lambda[1967] 0
lambda[1968] 0
lambda[1969] 0
lambda[1970] 0
lambda[1971] 0
lambda[1972] 0
lambda[1973] 0
lambda[1974] 0
lambda[1975] 0
lambda[1976] 0
lambda[1977] 0
lambda[1978] 0
lambda[1979] 0
lambda[1980] 0
lambda[1981] 0
lambda[1982] 0
lambda[1983] 0
lambda[1984] 0
lambda[1985] 0
lambda[1986] 0
lambda[1987] 0
lambda[1988] 0
lambda[1989] 0
lambda[1990] 0
lambda[1991] 0
lambda[1992] 0
lambda[1993] 0
lambda[1994] 0
lambda[1995] 0
lambda[1996] 0
lambda[1997] 0
lambda[1998] 0
lambda[1999] 0
lambda[2000] 0
lambda[2001] 0
lambda[2002] 0
lambda[2003] 0
lambda[2004] 0
lambda[2005] 0
lambda[2006] 0
lambda[2007] 0
lambda[2008] 0
lambda[2009] 0
lambda[2010] 0
lambda[2011] 0
lambda[2012] 0
lambda[2013] 0
lambda[2014] 0
lambda[2015] 0
lambda[2016] 0
lambda[2017] 0
lambda[2018] 0
lambda[2019] 0
lambda[2020] 0
lambda[2021] 0
lambda[2022] 0
lambda[2023] 0
lambda[2024] 0
lambda[2025] 0
lambda[2026] 0
lambda[2027] 0
lambda[2028] 0
lambda[2029] 0
lambda[2030] 0
lambda[2031] 0
lambda[2032] 0
lambda[2033] 0
lambda[2034] 0
lambda[2035] 0
lambda[2036] 0
lambda[2037] 0
lambda[2038] 0
lambda[2039] 0
lambda[2040] 0
lambda[2041] 0
lambda[2042] 0
lambda[2043] 0
lambda[2044] 0
lambda[2045] 0
lambda[2046] 0
lambda[2047] 0
lambda[2048] 0
lambda[2049] 0
lambda[2050] 0
lambda[2051] 0
lambda[2052] 0
lambda[2053] 0
lambda[2054] 0
lambda[2055] 0
lambda[2056] 0
lambda[2057] 0
lambda[2058] 0
lambda[2059] 0
lambda[2060] 0
lambda[2061] 0
lambda[2062] 0
lambda[2063] 1.4378988962080347e-01
lambda[2064] 0
lambda[2065] 0
lambda[2066] 0
lambda[2067] 0
lambda[2068] 0
lambda[2069] 0
lambda[2070] 0
lambda[2071] 0
lambda[2072] 0
lambda[2073] 0
lambda[2074] 0
lambda[2075] 0
lambda[2076] 0
lambda[2077] 0
lambda[2078] 0
lambda[2079] 0
lambda[2080] 0
lambda[2081] 0
lambda[2082] 0
lambda[2083] 0
lambda[2084] 0
lambda[2085] 0
lambda[2086] 0
lambda[2087] 0
lambda[2088] 0
lambda[2089] 0
lambda[2090] 0
lambda[2091] 0
lambda[2092] 0
lambda[2093] 0
lambda[2094] 0
lambda[2095] 0
lambda[2096] 0
lambda[2097] 0
lambda[2098] 0
lambda[2099] 0
lambda[2100] 0
lambda[2101] 0
lambda[2102] 0
lambda[2103] 0
lambda[2104] 0
lambda[2105] 0
lambda[2106] 0
lambda[2107] 0
lambda[2108] 0
lambda[2109] 0
lambda[2110] 0
lambda[2111] 0
lambda[2112] 0
lambda[2113] 0
lambda[2114] 0
lambda[2115] 0
lambda[2116] 0
lambda[2117] 0
lambda[2118] 0
lambda[2119] 0
lambda[2120] 0
lambda[2121] 0
lambda[2122] 0
lambda[2123] 0
lambda[2124] 0
lambda[2125] 0
lambda[2126] 0
lambda[2127] 0
lambda[2128] 0
lambda[2129] 0
lambda[2130] 0
lambda[2131] 0
lambda[2132] 0
lambda[2133] 0
lambda[2134] 0
lambda[2135] 0
lambda[2136] 0
lambda[2137] 0
lambda[2138] 0
lambda[2139] 0
lambda[2140] 0
lambda[2141] 0
lambda[2142] 0
lambda[2143] 0
lambda[2144] 0
lambda[2145] 0
lambda[2146] 0
lambda[2147] 0
lambda[2148] 0
lambda[2149] 0
lambda[2150] 0
lambda[2151] 0
lambda[2152] 0
lambda[2153] 0
lambda[2154] 0
lambda[2155] 0
lambda[2156] 0
lambda[2157] 0
lambda[2158] 0
lambda[2159] 0
lambda[2160] 0
lambda[2161] 0
lambda[2162] 0
lambda[2163] 0
lambda[2164] 0
lambda[2165] 0
lambda[2166] 0
lambda[2167] 0
lambda[2168] 0
lambda[2169] 0
lambda[2170] 0
lambda[2171] 0
lambda[2172] 0
lambda[2173] 0
lambda[2174] 0
lambda[2175] 0
lambda[2176] 0
lambda[2177] 0
lambda[2178] 0
lambda[2179] 0
lambda[2180] 0
lambda[2181] 0
lambda[2182] 0
lambda[2183] 0
lambda[2184] 0
lambda[2185] 0
lambda[2186] 0
lambda[2187] 0
lambda[2188] 0
lambda[2189] 0
lambda[2190] 0
lambda[2191] 0
lambda[2192] 0
lambda[2193] 0
lambda[2194] 0
lambda[2195] 0
lambda[2196] 0
lambda[2197] 0
lambda[2198] 0
lambda[2199] 0
lambda[2200] 0
lambda[2201] 0
lambda[2202] 0
lambda[2203] 0
lambda[2204] 0
lambda[2205] 0
lambda[2206] 0
lambda[2207] 0
lambda[2208] 0
lambda[2209] 0
lambda[2210] 0
lambda[2211] 0
lambda[2212] 0
lambda[2213] 0
lambda[2214] 0
lambda[2215] 0
lambda[2216] 0
lambda[2217] 0
lambda[2218] 0
lambda[2219] 0
lambda[2220] 0
lambda[2221] 0
lambda[2222] 0
lambda[2223] 0
lambda[2224] 0
lambda[2225] 0
lambda[2226] 0
lambda[2227] 0
lambda[2228] 0
lambda[2229] 0
lambda[2230] 0
lambda[2231] 0
lambda[2232] 0
lambda[2233] 0
lambda[2234] 0
lambda[2235] 0
lambda[2236] 0
lambda[2237] 0
lambda[2238] 0
lambda[2239] 0
lambda[2240] 0
lambda[2241] 0
lambda[2242] 0
lambda[2243] 0
lambda[2244] 0
lambda[2245] 0
lambda[2246] 0
lambda[2247] 0
lambda[2248] 0
lambda[2249] 0
lambda[2250] 0
lambda[2251] 0
lambda[2252] 0
lambda[2253] 0
lambda[2254] 0
lambda[2255] 0
lambda[2256] 0
lambda[2257] 0
lambda[2258] 0
lambda[2259] 0
lambda[2260] 0
lambda[2261] 0
lambda[2262] 0
lambda[2263] 0
lambda[2264] 0
lambda[2265] 0
lambda[2266] 0
lambda[2267] 0
lambda[2268] 0
lambda[2269] 0
lambda[2270] 0
lambda[2271] 0
lambda[2272] 0
lambda[2273] 0
lambda[2274] 0
lambda[2275] 0
lambda[2276] 0
lambda[2277] 0
lambda[2278] 0
lambda[2279] 0
lambda[2280] 0
lambda[2281] 0
lambda[2282] 0
lambda[2283] 0
lambda[2284] 0
lambda[2285] 0
lambda[2286] 0
lambda[2287] 0
lambda[2288] 0
lambda[2289] 0
lambda[2290] 0
lambda[2291] 0
lambda[2292] 0
lambda[2293] 0
lambda[2294] 0
lambda[2295] 0
lambda[2296] 0
lambda[2297] 0
lambda[2298] 0
lambda[2299] 0
lambda[2300] 0
lambda[2301] 0
lambda[2302] 0
lambda[2303] 0
lambda[2304] 0
lambda[2305] 0
lambda[2306] 0
lambda[2307] 0
lambda[2308] 0
lambda[2309] 0
lambda[2310] 0
lambda[2311] 0
lambda[2312] 0
lambda[2313] 0
lambda[2314] 0
lambda[2315] 0
lambda[2316] 0
lambda[2317] 0
lambda[2318] 0
lambda[2319] 0
lambda[2320] 0
lambda[2321] 0
lambda[2322] 0
lambda[2323] 0
lambda[2324] 0
lambda[2325] 0
lambda[2326] 0
lambda[2327] 0
lambda[2328] 0
lambda[2329] 0
lambda[2330] 0
lambda[2331] 0
lambda[2332] 0
lambda[2333] 0
lambda[2334] 0
lambda[2335] 0
lambda[2336] 0
lambda[2337] 0
lambda[2338] 0
lambda[2339] 0
phi[0] 2.2314355131420965e-01
